c File: data_files/evolved_graphs/g6165.col
c
c Auto generated graph
c
p edge 100 302
e 1 37
e 1 41
e 1 67
e 1 72
e 1 90
e 1 99
e 2 23
e 2 30
e 2 39
e 2 59
e 2 66
e 2 100
e 3 6
e 3 38
e 3 51
e 3 73
e 3 76
e 3 78
e 3 91
e 3 98
e 4 10
e 4 15
e 4 25
e 4 39
e 4 53
e 4 56
e 4 64
e 5 11
e 5 24
e 5 25
e 5 62
e 5 67
e 5 81
e 5 82
e 5 91
e 6 22
e 6 41
e 6 60
e 6 74
e 6 89
e 7 21
e 7 30
e 7 51
e 7 54
e 7 60
e 7 68
e 7 69
e 7 70
e 8 46
e 8 74
e 8 78
e 8 79
e 8 94
e 9 17
e 9 30
e 9 46
e 9 52
e 9 76
e 9 77
e 9 92
e 10 19
e 10 40
e 10 47
e 10 89
e 10 92
e 10 95
e 11 37
e 11 44
e 11 46
e 11 80
e 11 88
e 11 92
e 12 48
e 12 70
e 12 74
e 12 77
e 12 85
e 12 93
e 12 98
e 13 28
e 13 35
e 13 53
e 13 63
e 13 91
e 13 99
e 14 27
e 14 33
e 14 43
e 14 64
e 14 90
e 14 93
e 15 45
e 15 66
e 15 69
e 15 88
e 15 93
e 16 25
e 16 33
e 16 35
e 16 63
e 16 72
e 16 86
e 16 94
e 17 32
e 17 47
e 17 49
e 17 75
e 17 100
e 18 29
e 18 45
e 18 48
e 18 61
e 18 75
e 19 26
e 19 58
e 19 89
e 19 99
e 20 25
e 20 27
e 20 31
e 20 46
e 20 48
e 20 66
e 21 24
e 21 36
e 21 40
e 21 50
e 21 67
e 22 31
e 22 36
e 22 44
e 22 47
e 22 55
e 22 61
e 23 25
e 23 32
e 23 42
e 23 47
e 24 25
e 24 52
e 24 57
e 24 65
e 26 52
e 26 53
e 26 61
e 26 62
e 27 61
e 27 64
e 27 68
e 27 79
e 27 98
e 28 51
e 28 61
e 28 63
e 28 82
e 29 41
e 29 59
e 29 76
e 29 79
e 30 92
e 30 97
e 30 98
e 31 33
e 31 50
e 31 84
e 32 34
e 32 94
e 33 45
e 33 50
e 34 48
e 34 54
e 34 64
e 34 91
e 34 97
e 35 61
e 35 66
e 35 83
e 35 91
e 36 45
e 36 55
e 36 63
e 36 66
e 36 67
e 37 41
e 37 46
e 37 57
e 37 70
e 38 44
e 38 45
e 38 46
e 38 59
e 38 65
e 38 83
e 39 51
e 39 62
e 39 64
e 39 83
e 39 85
e 40 80
e 40 81
e 40 90
e 41 68
e 41 87
e 42 64
e 42 82
e 42 86
e 42 99
e 43 48
e 43 56
e 43 92
e 43 93
e 44 61
e 44 92
e 45 55
e 46 74
e 47 54
e 47 76
e 48 54
e 49 64
e 49 78
e 49 80
e 51 70
e 51 75
e 51 79
e 52 80
e 52 84
e 52 87
e 53 70
e 53 71
e 53 81
e 54 71
e 54 83
e 55 78
e 55 85
e 55 99
e 56 80
e 56 97
e 56 100
e 57 71
e 57 85
e 57 98
e 57 100
e 58 73
e 58 81
e 58 87
e 58 99
e 58 100
e 59 72
e 59 85
e 59 89
e 60 62
e 60 74
e 60 88
e 60 95
e 62 86
e 63 86
e 65 94
e 65 96
e 65 97
e 66 70
e 66 94
e 66 95
e 67 72
e 67 89
e 67 95
e 67 96
e 68 91
e 68 94
e 69 91
e 69 93
e 69 96
e 69 100
e 70 90
e 71 73
e 71 90
e 71 92
e 72 88
e 73 76
e 73 90
e 74 77
e 74 90
e 75 89
e 76 96
e 77 78
e 77 83
e 78 83
e 78 95
e 79 84
e 79 96
e 79 98
e 80 90
e 80 96
e 81 82
e 81 88
e 82 85
e 84 86
e 84 87
e 84 95
e 85 94
e 86 97
e 87 93
e 92 93
